nNurses = 78;
nHours = 40;
minHours = 8;
maxHours = 16;
maxConsec = 15;
maxPresence = 24;
demand = [19, 15, 20, 21, 18, 15, 20, 25, 27, 23, 21, 25, 26, 22, 27, 31, 30, 32, 31, 26, 24, 21, 16, 11, 11, 12, 13, 18, 21, 16, 21, 22, 20, 16, 11, 9, 5, 10, 6, 5];
